SCIP version 5.0.0 [precision: 8 byte] [memory: block] [mode: optimized] [LP solver: NONE] [GitHash: 3bbd232]
Copyright (C) 2002-2017 Konrad-Zuse-Zentrum fuer Informationstechnik Berlin (ZIB)

External codes: 
  Readline EditLine w  GNU library for command line editing (gnu.org/s/readline)
  CppAD 20160000.1     Algorithmic Differentiation of C++ algorithms developed by B. Bell (www.coin-or.org/CppAD)
  ZLIB 1.2.5           General purpose compression library by J. Gailly and M. Adler (zlib.net)
  GMP 6.1.2            GNU Multiple Precision Arithmetic Library developed by T. Granlund (gmplib.org)

user parameter file <scip.set> not found - using default parameters

read problem <../../Split_data/output/seismic-bumps/5/1_sample_seismic-bumps.logreg>
============

File name	:	../../Split_data/output/seismic-bumps/5/1_sample_seismic-bumps.logreg
Problem name 	:	1_sample_seismic-bumps
Number of data	:	2068
Number of var	:	21
The given data has linear dependence
4 sets of column vector are linearly dependent:
{ 2 3}, { 4 5 6}, { 7 8}, { 13 14 15}, 

[dim=1] time: 0.032977
[dim=2] time: 0.068275
[dim=3] time: 0.103186
[dim=4] time: 0.142078
[dim=5] time: 0.171433
[dim=6] time: 0.198471
[dim=7] time: 0.225179
[dim=8] time: 0.251653
[dim=9] Time of forward = 0.269005sec.
AIC: 912.814
k: 8

[dim=17] time: 0.066339
[dim=16] time: 0.0979
[dim=15] time: 0.128611
[dim=14] time: 0.157537
[dim=13] time: 0.1734
[dim=12] time: 0.194782
[dim=11] time: 0.217124
[dim=10] time: 0.233821
[dim=9] time: 0.245531
[dim=8] Time of backward = 0.255516sec.
AIC: 914.916
k: 9
